p wcnf 120 1500
3 -110 -112 0
5 -110 118 0
4 -110 120 0
2 -107 -114 0
2 -107 113 0
10 -107 114 0
5 -107 120 0
4 -106 109 0
9 -106 112 0
4 -106 116 0
4 -106 120 0
4 -105 106 0
2 -105 119 0
6 -104 108 0
4 -103 107 0
9 -101 -115 0
7 -101 -112 0
7 -101 115 0
6 -100 -104 0
6 -100 110 0
9 -100 116 0
9 -99 -106 0
3 -99 104 0
9 -98 -117 0
10 -98 -112 0
4 -98 -110 0
9 -97 -112 0
6 -97 106 0
1 -97 107 0
8 -96 -119 0
3 -96 -112 0
3 -96 -106 0
3 -96 99 0
5 -96 118 0
4 -95 -103 0
4 -95 112 0
5 -94 107 0
8 -93 -110 0
7 -93 117 0
4 -92 -120 0
1 -92 -115 0
10 -92 -112 0
7 -92 -108 0
2 -92 -101 0
5 -91 -119 0
9 -91 -96 0
1 -91 112 0
2 -90 -108 0
6 -90 100 0
6 -90 112 0
8 -89 -97 0
5 -88 -111 0
6 -88 -103 0
10 -88 97 0
4 -88 98 0
5 -88 106 0
3 -88 120 0
4 -87 95 0
1 -87 115 0
3 -86 -119 0
2 -86 -101 0
3 -86 -88 0
5 -86 87 0
4 -86 93 0
7 -86 104 0
8 -86 112 0
7 -86 119 0
2 -85 -114 0
5 -85 -94 0
4 -85 -88 0
5 -85 86 0
6 -85 93 0
4 -85 94 0
2 -85 96 0
7 -85 102 0
8 -84 88 0
1 -84 102 0
7 -84 119 0
10 -83 -109 0
6 -83 92 0
3 -83 105 0
7 -83 114 0
10 -82 -113 0
8 -82 -111 0
7 -82 -95 0
4 -82 83 0
3 -82 97 0
9 -82 98 0
7 -82 112 0
3 -81 -114 0
3 -81 -112 0
8 -81 -108 0
5 -81 -86 0
7 -81 87 0
2 -81 99 0
2 -81 118 0
5 -80 -102 0
8 -80 -84 0
4 -80 -83 0
9 -80 83 0
2 -80 84 0
8 -80 107 0
5 -80 113 0
5 -79 -109 0
9 -79 113 0
1 -78 -120 0
3 -78 83 0
9 -77 -109 0
7 -77 -107 0
2 -77 -105 0
5 -77 -102 0
10 -77 -95 0
9 -77 -89 0
5 -77 -81 0
8 -77 98 0
6 -77 104 0
8 -76 -105 0
1 -76 -102 0
5 -76 -86 0
5 -76 -81 0
3 -76 90 0
7 -75 -80 0
3 -75 95 0
7 -75 120 0
3 -74 -119 0
4 -74 -108 0
9 -74 88 0
7 -74 114 0
2 -73 -108 0
2 -73 -100 0
6 -73 -92 0
3 -73 85 0
9 -73 89 0
10 -73 93 0
7 -73 96 0
8 -72 -112 0
10 -72 -111 0
9 -72 -104 0
7 -72 -91 0
7 -71 -72 0
10 -71 75 0
1 -71 84 0
7 -71 91 0
8 -71 100 0
5 -70 -115 0
5 -70 -89 0
4 -70 -84 0
3 -70 -80 0
5 -70 73 0
8 -70 112 0
7 -70 113 0
8 -69 -120 0
5 -69 -98 0
10 -69 -86 0
5 -69 70 0
7 -69 86 0
4 -69 91 0
4 -69 116 0
4 -68 -85 0
6 -67 -113 0
5 -67 -75 0
9 -67 87 0
8 -67 99 0
4 -66 -117 0
8 -66 -114 0
5 -66 -109 0
2 -66 -105 0
8 -66 -94 0
4 -66 -77 0
7 -66 74 0
5 -66 86 0
3 -66 87 0
8 -65 -113 0
3 -65 -71 0
2 -65 70 0
3 -65 86 0
7 -64 -120 0
5 -64 -119 0
5 -64 -112 0
2 -64 -92 0
3 -64 -88 0
2 -64 -73 0
9 -64 90 0
6 -64 117 0
2 -63 -114 0
4 -63 -97 0
3 -63 -66 0
5 -63 83 0
7 -63 88 0
6 -63 90 0
10 -62 -119 0
2 -62 -106 0
4 -62 -103 0
8 -62 -75 0
5 -62 -72 0
2 -62 68 0
3 -62 75 0
6 -62 81 0
9 -62 107 0
5 -62 111 0
3 -61 -62 0
5 -61 82 0
8 -61 88 0
1 -61 90 0
7 -61 92 0
8 -60 -108 0
3 -60 -91 0
4 -60 -75 0
3 -60 66 0
7 -60 73 0
5 -60 106 0
4 -60 116 0
9 -59 -116 0
4 -59 -107 0
10 -59 -97 0
10 -59 -95 0
7 -59 -78 0
2 -59 -73 0
5 -59 115 0
4 -59 119 0
7 -58 -104 0
5 -58 -70 0
5 -58 103 0
1 -58 105 0
3 -58 111 0
9 -57 -99 0
3 -57 -81 0
5 -57 61 0
5 -57 72 0
2 -57 93 0
9 -56 -90 0
7 -56 -85 0
6 -56 -82 0
7 -56 -75 0
7 -56 -59 0
2 -56 65 0
5 -56 88 0
9 -56 90 0
5 -56 98 0
7 -55 -109 0
6 -55 -95 0
9 -55 -73 0
1 -55 66 0
5 -55 97 0
3 -54 -108 0
10 -54 -97 0
4 -54 91 0
9 -53 -114 0
2 -53 -102 0
8 -53 -84 0
3 -53 -67 0
8 -53 65 0
3 -53 118 0
7 -52 -116 0
9 -52 -97 0
5 -52 -78 0
6 -52 -75 0
1 -52 69 0
9 -52 82 0
10 -52 97 0
2 -52 100 0
8 -51 115 0
7 -50 -94 0
7 -50 -66 0
5 -50 84 0
4 -50 95 0
8 -49 -89 0
9 -49 -88 0
3 -49 -86 0
2 -49 -68 0
6 -49 -57 0
8 -49 65 0
1 -49 91 0
6 -49 95 0
3 -49 96 0
3 -49 103 0
6 -49 115 0
6 -48 -109 0
2 -48 -86 0
8 -48 -79 0
4 -48 -52 0
4 -48 80 0
6 -48 95 0
7 -48 119 0
1 -47 -114 0
5 -47 -113 0
2 -47 -81 0
7 -47 -67 0
5 -47 57 0
10 -46 -110 0
6 -46 -81 0
6 -46 -66 0
8 -46 -64 0
3 -46 59 0
3 -46 80 0
3 -46 90 0
6 -46 107 0
10 -46 111 0
2 -45 84 0
8 -45 106 0
2 -44 -88 0
7 -44 -80 0
6 -44 -77 0
2 -44 -64 0
3 -44 -58 0
7 -44 46 0
4 -44 53 0
8 -44 78 0
3 -44 86 0
5 -44 97 0
6 -44 102 0
6 -43 -119 0
8 -43 -113 0
2 -43 -111 0
3 -43 -81 0
8 -43 -55 0
6 -43 60 0
4 -43 66 0
5 -43 76 0
10 -43 99 0
3 -43 102 0
1 -43 117 0
6 -42 -109 0
1 -42 -105 0
4 -42 -99 0
7 -42 -71 0
3 -42 70 0
9 -42 71 0
7 -42 90 0
3 -41 -104 0
6 -41 -93 0
8 -41 -86 0
9 -41 -48 0
2 -41 44 0
9 -40 -86 0
2 -40 -84 0
8 -40 46 0
3 -40 47 0
9 -40 52 0
1 -40 53 0
7 -40 91 0
5 -40 97 0
6 -39 -103 0
4 -39 -44 0
6 -39 45 0
8 -39 71 0
3 -38 -119 0
1 -38 -112 0
2 -38 -105 0
7 -38 -90 0
10 -38 -63 0
4 -38 -55 0
7 -38 46 0
5 -38 55 0
4 -38 87 0
9 -38 88 0
3 -38 111 0
6 -38 118 0
8 -37 -118 0
9 -37 -95 0
8 -37 -92 0
4 -37 -60 0
7 -37 -51 0
7 -37 -46 0
5 -37 -40 0
6 -37 57 0
8 -37 83 0
3 -37 93 0
8 -36 -80 0
7 -36 -73 0
3 -36 -55 0
5 -36 -49 0
2 -36 58 0
9 -36 60 0
8 -36 70 0
7 -36 79 0
7 -36 117 0
10 -35 -119 0
7 -35 -59 0
8 -35 -52 0
6 -35 -36 0
7 -35 42 0
2 -35 59 0
3 -35 68 0
2 -35 91 0
5 -35 92 0
2 -34 -120 0
4 -34 -95 0
10 -34 -92 0
9 -34 -64 0
2 -34 45 0
8 -34 77 0
3 -34 90 0
8 -33 -116 0
5 -33 -98 0
7 -33 -83 0
4 -33 -69 0
4 -33 42 0
10 -33 56 0
2 -33 71 0
1 -33 73 0
3 -33 89 0
6 -33 104 0
2 -32 -100 0
2 -32 -90 0
4 -32 -83 0
8 -32 -58 0
7 -32 -41 0
3 -32 35 0
5 -32 37 0
5 -32 42 0
9 -32 45 0
2 -32 46 0
6 -32 48 0
2 -32 52 0
3 -32 63 0
9 -32 66 0
3 -31 -107 0
5 -31 -92 0
9 -31 48 0
2 -31 57 0
7 -31 70 0
7 -31 75 0
4 -31 88 0
5 -31 94 0
2 -31 103 0
2 -30 -114 0
9 -30 -84 0
5 -30 -47 0
1 -30 54 0
10 -30 60 0
5 -30 64 0
3 -30 66 0
5 -30 94 0
6 -30 102 0
4 -30 118 0
8 -29 -75 0
5 -29 -49 0
1 -29 -34 0
1 -29 -33 0
9 -29 72 0
5 -29 76 0
9 -29 82 0
10 -28 -119 0
10 -28 -60 0
9 -28 -57 0
3 -28 53 0
9 -28 72 0
2 -28 74 0
7 -28 97 0
8 -28 98 0
3 -28 106 0
4 -27 -106 0
5 -27 -91 0
7 -27 -56 0
8 -27 -47 0
6 -27 93 0
8 -27 115 0
7 -26 -104 0
1 -26 -98 0
8 -26 -97 0
6 -26 -86 0
5 -26 -72 0
1 -26 -47 0
2 -26 -45 0
2 -26 -44 0
4 -26 60 0
9 -26 71 0
5 -26 92 0
4 -26 110 0
9 -26 115 0
4 -25 -80 0
9 -25 -53 0
8 -25 -49 0
4 -25 -32 0
8 -25 -30 0
7 -25 101 0
6 -25 115 0
8 -25 119 0
8 -24 -117 0
3 -24 -115 0
6 -24 -59 0
2 -24 -49 0
6 -24 -32 0
10 -24 27 0
7 -24 72 0
4 -24 81 0
6 -24 96 0
5 -24 107 0
10 -24 108 0
6 -23 -111 0
3 -23 -103 0
6 -23 -100 0
1 -23 -81 0
3 -23 -67 0
7 -23 -39 0
2 -23 -36 0
6 -23 35 0
6 -23 73 0
7 -23 84 0
9 -23 107 0
5 -23 109 0
1 -23 118 0
8 -22 -111 0
2 -22 -61 0
4 -22 -50 0
6 -22 31 0
9 -22 37 0
9 -22 45 0
4 -22 46 0
7 -22 74 0
2 -22 80 0
9 -22 83 0
7 -22 84 0
7 -22 85 0
9 -22 87 0
5 -22 117 0
10 -21 -108 0
5 -21 -98 0
9 -21 -95 0
9 -21 -76 0
1 -21 -61 0
1 -21 -57 0
5 -21 -33 0
2 -21 73 0
3 -21 112 0
2 -20 -113 0
3 -20 -79 0
8 -20 -71 0
6 -20 -63 0
8 -20 -25 0
8 -20 -21 0
10 -20 37 0
8 -20 43 0
6 -20 48 0
2 -20 52 0
3 -20 83 0
2 -20 96 0
10 -19 -82 0
2 -19 -69 0
5 -19 -64 0
7 -19 -32 0
3 -19 31 0
4 -19 60 0
4 -19 71 0
9 -19 100 0
2 -19 120 0
8 -18 -119 0
8 -18 -111 0
6 -18 -84 0
6 -18 -53 0
7 -18 -51 0
6 -18 -36 0
7 -18 22 0
2 -18 31 0
7 -18 66 0
9 -17 -61 0
3 -17 24 0
9 -17 40 0
7 -17 41 0
9 -17 47 0
7 -17 59 0
5 -17 61 0
9 -17 76 0
5 -17 79 0
9 -17 114 0
10 -16 -115 0
7 -16 -93 0
1 -16 -92 0
10 -16 -78 0
8 -16 -57 0
5 -16 -51 0
6 -16 -29 0
1 -16 -28 0
8 -16 -25 0
9 -16 26 0
9 -16 85 0
9 -16 104 0
7 -16 120 0
7 -15 -119 0
5 -15 -54 0
4 -15 -49 0
4 -15 -46 0
2 -15 -41 0
9 -15 -35 0
6 -15 -32 0
7 -15 -30 0
8 -15 27 0
8 -15 51 0
6 -15 60 0
5 -15 120 0
6 -14 -104 0
3 -14 -101 0
9 -14 -99 0
5 -14 -79 0
8 -14 -67 0
8 -14 -62 0
5 -14 28 0
5 -14 29 0
9 -14 45 0
5 -14 55 0
3 -14 73 0
4 -14 74 0
1 -14 76 0
3 -13 -104 0
2 -13 -92 0
10 -13 -90 0
2 -13 -76 0
10 -13 -73 0
7 -13 -66 0
8 -13 -58 0
5 -13 -14 0
10 -13 21 0
2 -13 35 0
6 -13 44 0
9 -13 51 0
7 -13 86 0
3 -13 93 0
7 -13 117 0
4 -13 118 0
8 -12 -109 0
3 -12 -93 0
10 -12 -88 0
1 -12 -53 0
2 -12 -35 0
5 -12 -24 0
8 -12 -18 0
9 -12 -17 0
9 -12 -15 0
3 -12 -13 0
8 -12 14 0
3 -12 19 0
5 -12 26 0
2 -12 28 0
3 -12 42 0
7 -12 46 0
2 -12 77 0
3 -12 86 0
8 -12 89 0
2 -12 91 0
9 -12 92 0
6 -12 95 0
6 -11 -82 0
8 -11 -33 0
8 -11 -27 0
2 -11 -21 0
7 -11 17 0
4 -11 42 0
4 -11 93 0
5 -10 -112 0
8 -10 -64 0
3 -10 -57 0
6 -10 21 0
7 -10 28 0
3 -10 47 0
7 -10 69 0
2 -10 75 0
1 -10 81 0
6 -10 113 0
1 -9 -115 0
3 -9 -98 0
4 -9 -91 0
3 -9 -43 0
7 -9 -29 0
5 -9 -24 0
6 -9 -19 0
4 -9 35 0
6 -9 68 0
8 -9 73 0
3 -9 89 0
7 -8 -100 0
7 -8 -63 0
8 -8 -55 0
4 -8 -27 0
5 -8 30 0
6 -8 59 0
5 -8 99 0
2 -8 116 0
9 -7 -120 0
8 -7 -10 0
6 -7 51 0
6 -7 54 0
10 -7 75 0
2 -7 103 0
4 -6 -120 0
3 -6 -99 0
8 -6 -93 0
5 -6 -89 0
3 -6 -42 0
5 -6 15 0
5 -6 22 0
5 -6 50 0
8 -6 56 0
8 -6 59 0
2 -6 95 0
2 -6 108 0
4 -6 110 0
6 -5 -109 0
7 -5 -61 0
1 -5 -50 0
8 -5 -37 0
5 -5 23 0
7 -5 30 0
6 -5 42 0
7 -5 65 0
2 -5 68 0
2 -5 82 0
2 -5 106 0
3 -5 108 0
9 -5 115 0
9 -5 116 0
8 -4 -120 0
6 -4 -109 0
9 -4 -101 0
9 -4 -94 0
9 -4 -63 0
2 -4 -15 0
8 -4 -6 0
4 -4 47 0
4 -4 48 0
2 -4 53 0
8 -4 63 0
8 -4 88 0
9 -4 102 0
6 -4 108 0
10 -3 -103 0
10 -3 -100 0
8 -3 -97 0
6 -3 -89 0
7 -3 -81 0
9 -3 -77 0
3 -3 -59 0
2 -3 -42 0
6 -3 -36 0
8 -3 -23 0
8 -3 -19 0
6 -3 -15 0
9 -3 52 0
9 -3 62 0
8 -3 66 0
8 -3 85 0
8 -3 87 0
6 -3 107 0
4 -2 -114 0
7 -2 -100 0
5 -2 -83 0
3 -2 -76 0
8 -2 -63 0
3 -2 11 0
5 -2 24 0
2 -2 39 0
4 -2 71 0
4 -2 98 0
9 -2 102 0
3 -1 -79 0
8 -1 -63 0
9 -1 -15 0
2 -1 -9 0
7 -1 56 0
5 -1 62 0
9 -1 78 0
5 -1 93 0
7 -1 94 0
10 1 -54 0
1 1 -23 0
5 1 8 0
8 1 35 0
6 1 42 0
4 1 49 0
7 1 55 0
4 1 93 0
2 1 97 0
5 1 98 0
10 1 119 0
5 2 -119 0
2 2 -92 0
5 2 -69 0
6 2 -59 0
8 2 -46 0
7 2 -22 0
2 2 -21 0
9 2 -20 0
10 2 -18 0
5 2 9 0
8 2 85 0
3 2 97 0
3 3 -94 0
7 3 -93 0
4 3 -72 0
9 3 -62 0
2 3 -36 0
3 3 -13 0
4 3 16 0
8 3 81 0
2 3 97 0
4 4 -117 0
3 4 -86 0
9 4 -45 0
9 4 -43 0
6 4 -27 0
6 4 35 0
4 4 57 0
7 4 83 0
1 4 109 0
4 4 119 0
2 5 -94 0
2 5 -70 0
8 5 -54 0
7 5 -18 0
9 5 12 0
5 5 13 0
8 5 46 0
9 5 57 0
5 5 86 0
3 5 109 0
7 6 -114 0
6 6 -113 0
5 6 -96 0
4 6 -72 0
9 6 -62 0
4 6 -57 0
5 6 -35 0
2 6 -28 0
7 6 -12 0
3 6 -9 0
3 6 57 0
1 6 59 0
5 6 65 0
2 6 68 0
9 6 78 0
1 7 -83 0
8 7 -79 0
3 7 -18 0
7 7 -11 0
8 7 15 0
6 7 35 0
8 7 61 0
8 7 70 0
4 7 79 0
6 8 -104 0
8 8 -87 0
7 8 -80 0
4 8 -76 0
6 8 -75 0
2 8 -62 0
6 8 -25 0
3 8 -22 0
7 8 12 0
10 8 44 0
6 8 95 0
6 8 114 0
3 8 119 0
2 9 -86 0
6 9 -84 0
9 9 -72 0
4 9 -71 0
8 9 -66 0
9 9 -61 0
8 9 -20 0
10 9 46 0
9 9 53 0
8 9 54 0
7 10 -119 0
2 10 -116 0
5 10 -107 0
5 10 -103 0
7 10 -94 0
4 10 -70 0
3 10 -67 0
9 10 -29 0
9 10 -25 0
1 10 19 0
7 10 21 0
3 10 23 0
6 10 76 0
7 10 90 0
8 10 109 0
9 10 113 0
4 11 -67 0
7 11 -57 0
5 11 -44 0
8 11 -31 0
10 11 46 0
6 11 63 0
5 11 66 0
9 11 75 0
8 12 -84 0
3 12 -31 0
8 12 -25 0
6 12 31 0
3 12 90 0
6 12 97 0
4 12 108 0
10 13 -80 0
7 13 -49 0
9 13 -45 0
5 13 -25 0
4 13 29 0
2 13 38 0
7 13 51 0
4 13 69 0
10 13 77 0
7 13 82 0
9 13 106 0
3 13 109 0
4 13 119 0
7 14 -86 0
9 14 -80 0
2 14 -48 0
9 14 -46 0
6 14 -42 0
6 14 -30 0
8 14 -15 0
6 14 38 0
2 14 45 0
3 14 48 0
5 14 54 0
9 14 78 0
5 14 118 0
3 15 -112 0
5 15 -84 0
7 15 -72 0
8 15 -44 0
8 15 -38 0
7 15 -22 0
6 15 22 0
7 15 38 0
2 15 51 0
9 15 61 0
8 15 70 0
8 16 -120 0
3 16 -115 0
8 16 -93 0
5 16 -84 0
2 16 -56 0
10 16 -51 0
8 16 -43 0
8 16 -32 0
9 16 -26 0
9 16 -24 0
7 16 18 0
6 16 20 0
6 16 34 0
5 16 38 0
2 16 56 0
7 16 65 0
7 16 81 0
6 16 120 0
6 17 -108 0
2 17 -94 0
7 17 -92 0
10 17 -45 0
8 17 -41 0
5 17 -38 0
8 17 -26 0
5 17 -25 0
10 17 25 0
5 17 49 0
6 17 65 0
9 17 102 0
3 17 113 0
4 18 -109 0
1 18 -95 0
1 18 -92 0
8 18 -76 0
3 18 -66 0
1 18 -51 0
6 18 -35 0
9 18 -30 0
9 18 -25 0
5 18 -23 0
6 18 -21 0
5 18 29 0
10 18 35 0
1 18 66 0
6 18 82 0
6 18 115 0
7 18 117 0
1 19 -117 0
2 19 -75 0
8 19 58 0
7 19 74 0
2 19 78 0
6 19 101 0
3 20 -110 0
9 20 -102 0
2 20 -97 0
2 20 -56 0
4 20 -49 0
7 20 -25 0
1 20 72 0
6 20 73 0
9 20 93 0
2 21 -119 0
6 21 -66 0
7 21 -54 0
3 21 41 0
7 21 47 0
3 21 58 0
2 21 62 0
6 21 66 0
7 21 102 0
8 22 -84 0
10 22 -67 0
7 22 -42 0
8 22 -30 0
6 22 -26 0
3 22 48 0
5 22 85 0
6 22 87 0
4 22 100 0
4 22 114 0
3 22 118 0
5 23 -58 0
9 23 -33 0
4 23 51 0
4 23 56 0
10 23 61 0
6 24 -118 0
7 24 -79 0
6 24 -62 0
6 24 -51 0
3 24 36 0
6 24 96 0
7 24 102 0
8 24 117 0
3 25 -111 0
9 25 -93 0
5 25 -75 0
5 25 -33 0
1 25 58 0
10 25 93 0
2 26 -103 0
8 26 -63 0
10 26 -61 0
8 26 71 0
6 27 -115 0
5 27 -81 0
1 27 -76 0
1 27 -68 0
10 27 -65 0
5 27 -57 0
4 27 -46 0
3 27 33 0
9 27 43 0
3 27 48 0
6 27 56 0
3 27 76 0
3 27 87 0
2 27 96 0
8 27 103 0
8 27 118 0
7 28 -118 0
10 28 -112 0
4 28 -111 0
4 28 -102 0
8 28 -92 0
7 28 -83 0
3 28 -70 0
2 28 -49 0
2 28 -31 0
4 28 -30 0
2 28 36 0
3 28 45 0
2 28 68 0
2 29 -108 0
2 29 -99 0
7 29 -71 0
6 29 -68 0
2 29 -46 0
7 29 -41 0
6 29 -37 0
5 29 42 0
1 29 70 0
8 30 -48 0
4 30 -42 0
3 30 -41 0
4 30 112 0
6 31 -108 0
5 31 -89 0
5 31 44 0
4 31 60 0
3 31 68 0
3 31 84 0
4 31 92 0
6 31 99 0
6 32 -71 0
1 32 -53 0
3 32 33 0
8 32 40 0
3 32 73 0
4 32 78 0
2 32 93 0
4 33 -120 0
6 33 -105 0
3 33 -99 0
5 33 -76 0
7 33 -63 0
8 33 -48 0
1 33 -46 0
8 33 -42 0
5 33 90 0
6 33 102 0
3 34 -118 0
6 34 -117 0
4 34 -95 0
6 34 -81 0
8 34 -80 0
7 34 -72 0
2 34 -46 0
3 34 37 0
3 34 47 0
5 34 82 0
5 34 93 0
5 35 -120 0
7 35 -117 0
1 35 -110 0
10 35 -93 0
8 35 -73 0
3 35 -65 0
8 35 -42 0
9 35 50 0
6 35 61 0
9 35 62 0
3 35 104 0
2 36 -107 0
2 36 -90 0
7 36 -73 0
8 36 -58 0
9 36 -56 0
8 36 -41 0
5 36 66 0
5 36 70 0
4 36 83 0
7 36 91 0
9 36 98 0
7 36 113 0
4 36 120 0
7 37 -107 0
4 37 -92 0
4 37 -88 0
8 37 -86 0
6 37 -48 0
8 37 -42 0
3 37 77 0
10 37 89 0
5 37 97 0
3 37 107 0
9 38 -113 0
3 38 -100 0
5 38 -98 0
7 38 -84 0
2 38 -51 0
2 38 66 0
6 38 93 0
5 38 117 0
3 39 -105 0
7 39 -65 0
2 39 -41 0
10 39 68 0
6 39 91 0
9 39 119 0
5 40 -98 0
10 40 -88 0
3 40 -64 0
3 40 -58 0
9 40 -52 0
9 40 -51 0
5 40 46 0
6 40 52 0
4 40 54 0
8 40 69 0
4 40 115 0
9 41 -103 0
6 41 -72 0
6 41 43 0
9 41 107 0
2 42 -97 0
8 42 -94 0
8 42 -84 0
4 42 53 0
4 42 106 0
5 42 117 0
5 43 -119 0
4 43 -118 0
2 43 -100 0
9 43 -90 0
6 43 -68 0
8 43 -47 0
2 43 48 0
6 43 51 0
4 43 53 0
10 43 54 0
10 43 57 0
4 43 66 0
2 43 68 0
2 43 69 0
3 43 99 0
1 43 102 0
6 43 116 0
8 44 -119 0
4 44 -97 0
5 44 -92 0
2 44 45 0
3 44 64 0
1 44 77 0
7 44 116 0
1 45 -118 0
2 45 -116 0
5 45 -111 0
8 45 -78 0
5 45 -49 0
8 45 -46 0
3 45 54 0
9 45 78 0
2 45 87 0
4 45 99 0
8 45 103 0
7 45 105 0
2 46 -103 0
9 46 -61 0
3 46 -48 0
5 46 48 0
8 46 74 0
3 47 -54 0
8 47 58 0
10 47 62 0
4 47 117 0
2 48 -77 0
1 48 -76 0
10 48 53 0
8 48 89 0
4 48 102 0
5 49 -105 0
9 49 -90 0
6 49 -67 0
5 49 -62 0
6 49 -53 0
7 49 70 0
6 49 84 0
9 49 94 0
5 49 95 0
1 49 100 0
7 49 102 0
7 50 -120 0
9 50 -87 0
8 50 -86 0
1 50 -82 0
8 50 -70 0
5 50 -57 0
3 50 71 0
6 50 103 0
7 51 -109 0
7 51 -95 0
5 51 -80 0
9 51 59 0
5 51 79 0
5 51 90 0
3 51 99 0
6 51 102 0
5 51 111 0
2 51 112 0
4 52 -86 0
9 52 -75 0
6 52 -58 0
3 52 53 0
5 52 54 0
10 52 90 0
8 53 -96 0
1 53 -69 0
6 53 85 0
7 53 105 0
5 54 -93 0
6 54 -71 0
4 54 64 0
2 54 69 0
5 55 -120 0
2 55 -83 0
3 55 -78 0
3 55 -58 0
6 55 57 0
4 55 59 0
8 55 61 0
3 55 67 0
1 55 75 0
3 55 89 0
1 55 90 0
5 55 106 0
7 55 111 0
3 55 115 0
1 56 -89 0
2 56 -72 0
4 56 67 0
4 56 75 0
10 56 86 0
9 56 89 0
7 56 96 0
4 56 97 0
9 56 115 0
4 57 -106 0
5 57 -95 0
5 57 -58 0
1 57 64 0
9 57 85 0
10 57 110 0
4 58 -111 0
1 58 -107 0
5 58 -86 0
5 58 -75 0
3 58 62 0
7 58 109 0
1 58 111 0
6 59 -88 0
5 59 -63 0
3 59 70 0
6 59 80 0
7 59 81 0
3 59 82 0
2 59 88 0
4 59 94 0
5 59 117 0
2 60 79 0
5 60 84 0
8 60 115 0
5 61 -112 0
4 61 -111 0
8 61 -63 0
2 61 63 0
8 61 112 0
6 62 -98 0
5 62 -68 0
2 62 91 0
1 62 95 0
5 62 110 0
1 63 -101 0
1 63 64 0
9 63 79 0
1 63 82 0
5 63 96 0
4 63 98 0
3 63 100 0
1 64 -107 0
4 64 -71 0
8 64 73 0
5 64 102 0
6 64 107 0
4 65 -97 0
2 65 -93 0
9 65 -90 0
5 65 -84 0
5 65 -82 0
4 65 90 0
5 65 101 0
9 66 -106 0
2 66 -68 0
10 66 80 0
3 66 119 0
9 67 -86 0
2 67 77 0
10 67 97 0
5 68 -115 0
6 68 -103 0
2 68 -91 0
6 68 82 0
1 69 -112 0
2 69 -90 0
6 69 73 0
9 69 89 0
2 70 -89 0
9 70 84 0
3 71 -106 0
4 71 -92 0
10 71 79 0
6 71 86 0
2 71 107 0
5 71 108 0
3 71 111 0
5 72 -79 0
6 72 83 0
2 72 103 0
9 72 113 0
10 73 -117 0
5 73 -107 0
4 73 -78 0
8 73 -75 0
6 73 78 0
4 73 92 0
1 73 110 0
5 74 -104 0
5 74 110 0
10 75 85 0
9 75 97 0
10 75 98 0
2 75 101 0
5 75 104 0
1 75 120 0
3 76 -105 0
9 76 -88 0
9 76 90 0
4 77 -115 0
9 77 -111 0
2 77 -82 0
8 77 79 0
9 77 104 0
8 78 -117 0
9 78 -85 0
4 79 -103 0
10 79 -95 0
4 79 85 0
9 80 -89 0
1 80 94 0
3 80 99 0
9 80 105 0
5 80 119 0
6 81 -90 0
7 81 -87 0
1 81 104 0
9 82 -92 0
7 82 98 0
5 82 100 0
4 82 115 0
7 82 118 0
4 83 -118 0
4 83 -109 0
8 83 -96 0
8 83 -93 0
4 83 96 0
10 83 103 0
7 84 -103 0
3 84 -100 0
4 84 99 0
6 85 -115 0
4 85 90 0
1 85 95 0
5 85 119 0
2 86 -119 0
9 86 -94 0
7 86 -89 0
1 86 92 0
3 86 114 0
6 86 120 0
2 87 -118 0
5 87 -99 0
5 87 -96 0
6 87 92 0
10 88 -111 0
2 88 -105 0
6 88 96 0
9 88 107 0
8 88 112 0
10 89 -116 0
3 89 108 0
5 89 119 0
4 89 120 0
6 90 -117 0
3 90 -104 0
2 91 -102 0
9 91 98 0
3 91 100 0
8 91 106 0
2 91 108 0
5 91 120 0
4 92 -95 0
5 92 95 0
6 93 -106 0
7 93 115 0
5 94 102 0
5 94 107 0
5 95 -108 0
6 96 99 0
7 96 112 0
10 96 117 0
6 97 -112 0
2 97 -109 0
5 97 109 0
2 99 -101 0
2 99 101 0
6 100 -120 0
7 100 -117 0
1 100 109 0
4 101 117 0
6 102 116 0
3 103 119 0
9 105 114 0
9 106 -118 0
8 106 110 0
2 106 119 0
10 106 120 0
6 107 -119 0
4 107 -118 0
7 109 -116 0
7 109 112 0
8 109 113 0
10 110 111 0
2 111 -113 0
4 112 118 0
7 114 -116 0
6 115 116 0
8 117 -118 0
2 117 119 0
